param set_len = 16;
param target_sum = 538033;
param values := [1] 29513 [2] 5508 [3] 83774 [4] 68486 [5] 57642 [6] 110186 [7] 64615 [8] 98946 [9] 40323 [10] 85431 [11] 123754 [12] 121818 [13] 13345 [14] 103927 [15] 12213 [16] 3343 ;
